p cnf 361 1
361 0
w 1 0.101322
w 2 1 0.381818
w 2 -1 0.865992
w 3 2 0.794657
w 3 -2 0.682089
w 4 3 1
w 4 -3 0
w 5 4 0.450695
w 5 -4 0.312905
w 6 5 0.105193
w 6 -5 0.391853
w 7 6 0
w 7 -6 1
w 8 7 0
w 8 -7 1
w 9 8 0
w 9 -8 1
w 10 9 0
w 10 -9 1
w 11 10 1
w 11 -10 0
w 12 11 0.275502
w 12 -11 0.352652
w 13 12 1
w 13 -12 0
w 14 13 0
w 14 -13 1
w 15 14 0
w 15 -14 1
w 16 15 0
w 16 -15 1
w 17 16 0
w 17 -16 1
w 18 17 1
w 18 -17 0
w 19 18 1
w 19 -18 0
w 20 1 1
w 20 -1 0
w 21 20 2 0
w 21 20 -2 1
w 21 -20 2 0
w 21 -20 -2 0
w 22 21 3 1
w 22 21 -3 1
w 22 -21 3 0
w 22 -21 -3 1
w 23 22 4 1
w 23 22 -4 0
w 23 -22 4 1
w 23 -22 -4 0
w 24 23 5 1
w 24 23 -5 0
w 24 -23 5 1
w 24 -23 -5 1
w 25 24 6 1
w 25 24 -6 1
w 25 -24 6 0
w 25 -24 -6 1
w 26 25 7 0
w 26 25 -7 1
w 26 -25 7 0
w 26 -25 -7 0
w 27 26 8 0
w 27 26 -8 0
w 27 -26 8 1
w 27 -26 -8 1
w 28 27 9 0
w 28 27 -9 0
w 28 -27 9 1
w 28 -27 -9 0
w 29 28 10 0
w 29 28 -10 1
w 29 -28 10 0
w 29 -28 -10 0
w 30 29 11 1
w 30 29 -11 0
w 30 -29 11 1
w 30 -29 -11 1
w 31 30 12 1
w 31 30 -12 0
w 31 -30 12 1
w 31 -30 -12 0
w 32 31 13 0
w 32 31 -13 1
w 32 -31 13 0
w 32 -31 -13 1
w 33 32 14 0.722261
w 33 32 -14 0.513116
w 33 -32 14 0.96435
w 33 -32 -14 0.443972
w 34 33 15 0.987765
w 34 33 -15 0.96348
w 34 -33 15 0.0160174
w 34 -33 -15 0.422328
w 35 34 16 1
w 35 34 -16 0
w 35 -34 16 0
w 35 -34 -16 0
w 36 35 17 0
w 36 35 -17 1
w 36 -35 17 0
w 36 -35 -17 1
w 37 36 18 1
w 37 36 -18 1
w 37 -36 18 0
w 37 -36 -18 0
w 38 37 19 1
w 38 37 -19 1
w 38 -37 19 0
w 38 -37 -19 0
w 39 20 1
w 39 -20 0
w 40 39 21 1
w 40 39 -21 0
w 40 -39 21 1
w 40 -39 -21 1
w 41 40 22 0.25439
w 41 40 -22 0.108564
w 41 -40 22 0.602053
w 41 -40 -22 0.458066
w 42 41 23 1
w 42 41 -23 1
w 42 -41 23 1
w 42 -41 -23 0
w 43 42 24 0
w 43 42 -24 0
w 43 -42 24 0
w 43 -42 -24 1
w 44 43 25 0.344951
w 44 43 -25 0.744305
w 44 -43 25 0.727041
w 44 -43 -25 0.986635
w 45 44 26 1
w 45 44 -26 0
w 45 -44 26 1
w 45 -44 -26 1
w 46 45 27 0
w 46 45 -27 0
w 46 -45 27 0
w 46 -45 -27 1
w 47 46 28 1
w 47 46 -28 0
w 47 -46 28 0
w 47 -46 -28 1
w 48 47 29 1
w 48 47 -29 0
w 48 -47 29 1
w 48 -47 -29 1
w 49 48 30 0.136401
w 49 48 -30 0.901228
w 49 -48 30 0.6548
w 49 -48 -30 0.132925
w 50 49 31 1
w 50 49 -31 0
w 50 -49 31 1
w 50 -49 -31 1
w 51 50 32 0
w 51 50 -32 0
w 51 -50 32 0
w 51 -50 -32 1
w 52 51 33 0
w 52 51 -33 1
w 52 -51 33 1
w 52 -51 -33 0
w 53 52 34 0
w 53 52 -34 1
w 53 -52 34 0
w 53 -52 -34 1
w 54 53 35 1
w 54 53 -35 0
w 54 -53 35 1
w 54 -53 -35 0
w 55 54 36 0
w 55 54 -36 1
w 55 -54 36 1
w 55 -54 -36 1
w 56 55 37 0
w 56 55 -37 0
w 56 -55 37 1
w 56 -55 -37 1
w 57 56 38 1
w 57 56 -38 1
w 57 -56 38 1
w 57 -56 -38 0
w 58 39 0
w 58 -39 1
w 59 58 40 1
w 59 58 -40 1
w 59 -58 40 1
w 59 -58 -40 0
w 60 59 41 0
w 60 59 -41 0
w 60 -59 41 1
w 60 -59 -41 1
w 61 60 42 1
w 61 60 -42 1
w 61 -60 42 0
w 61 -60 -42 1
w 62 61 43 0.207779
w 62 61 -43 0.698154
w 62 -61 43 0.392494
w 62 -61 -43 0.51225
w 63 62 44 1
w 63 62 -44 0
w 63 -62 44 1
w 63 -62 -44 1
w 64 63 45 0.823626
w 64 63 -45 0.427654
w 64 -63 45 0.599296
w 64 -63 -45 0.171956
w 65 64 46 0
w 65 64 -46 1
w 65 -64 46 0
w 65 -64 -46 0
w 66 65 47 1
w 66 65 -47 0
w 66 -65 47 1
w 66 -65 -47 0
w 67 66 48 0
w 67 66 -48 1
w 67 -66 48 0
w 67 -66 -48 0
w 68 67 49 1
w 68 67 -49 0
w 68 -67 49 0
w 68 -67 -49 1
w 69 68 50 0
w 69 68 -50 0
w 69 -68 50 0
w 69 -68 -50 1
w 70 69 51 1
w 70 69 -51 1
w 70 -69 51 0
w 70 -69 -51 1
w 71 70 52 0
w 71 70 -52 1
w 71 -70 52 0
w 71 -70 -52 0
w 72 71 53 1
w 72 71 -53 1
w 72 -71 53 1
w 72 -71 -53 0
w 73 72 54 0.255453
w 73 72 -54 0.694786
w 73 -72 54 0.474844
w 73 -72 -54 0.4601
w 74 73 55 0
w 74 73 -55 0
w 74 -73 55 0
w 74 -73 -55 1
w 75 74 56 1
w 75 74 -56 1
w 75 -74 56 0
w 75 -74 -56 0
w 76 75 57 1
w 76 75 -57 0
w 76 -75 57 1
w 76 -75 -57 0
w 77 58 1
w 77 -58 0
w 78 77 59 0.409614
w 78 77 -59 0.238301
w 78 -77 59 0.202491
w 78 -77 -59 0.894441
w 79 78 60 1
w 79 78 -60 0
w 79 -78 60 1
w 79 -78 -60 1
w 80 79 61 0
w 80 79 -61 1
w 80 -79 61 1
w 80 -79 -61 0
w 81 80 62 0.161112
w 81 80 -62 0.183644
w 81 -80 62 0.290251
w 81 -80 -62 0.702232
w 82 81 63 0
w 82 81 -63 1
w 82 -81 63 0
w 82 -81 -63 1
w 83 82 64 0.350215
w 83 82 -64 0.350291
w 83 -82 64 0.278931
w 83 -82 -64 0.616743
w 84 83 65 0
w 84 83 -65 1
w 84 -83 65 1
w 84 -83 -65 1
w 85 84 66 0.256987
w 85 84 -66 0.217984
w 85 -84 66 0.924834
w 85 -84 -66 0.325259
w 86 85 67 1
w 86 85 -67 0
w 86 -85 67 1
w 86 -85 -67 0
w 87 86 68 0.32649
w 87 86 -68 0.433869
w 87 -86 68 0.139938
w 87 -86 -68 0.616741
w 88 87 69 0
w 88 87 -69 1
w 88 -87 69 1
w 88 -87 -69 1
w 89 88 70 1
w 89 88 -70 0
w 89 -88 70 0
w 89 -88 -70 0
w 90 89 71 1
w 90 89 -71 1
w 90 -89 71 0
w 90 -89 -71 0
w 91 90 72 0.303708
w 91 90 -72 0.963003
w 91 -90 72 0.694154
w 91 -90 -72 0.628967
w 92 91 73 0
w 92 91 -73 1
w 92 -91 73 1
w 92 -91 -73 0
w 93 92 74 0
w 93 92 -74 0
w 93 -92 74 0
w 93 -92 -74 1
w 94 93 75 0.843396
w 94 93 -75 0.719967
w 94 -93 75 0.314113
w 94 -93 -75 0.812227
w 95 94 76 1
w 95 94 -76 0
w 95 -94 76 1
w 95 -94 -76 1
w 96 77 0
w 96 -77 1
w 97 96 78 1
w 97 96 -78 0
w 97 -96 78 1
w 97 -96 -78 1
w 98 97 79 0
w 98 97 -79 0
w 98 -97 79 1
w 98 -97 -79 0
w 99 98 80 0
w 99 98 -80 0
w 99 -98 80 1
w 99 -98 -80 0
w 100 99 81 0.4213
w 100 99 -81 0.173694
w 100 -99 81 0.752294
w 100 -99 -81 0.304209
w 101 100 82 0
w 101 100 -82 0
w 101 -100 82 0
w 101 -100 -82 1
w 102 101 83 0
w 102 101 -83 1
w 102 -101 83 1
w 102 -101 -83 1
w 103 102 84 0.253332
w 103 102 -84 0.885556
w 103 -102 84 0.728922
w 103 -102 -84 0.142537
w 104 103 85 1
w 104 103 -85 0
w 104 -103 85 0
w 104 -103 -85 0
w 105 104 86 1
w 105 104 -86 0
w 105 -104 86 1
w 105 -104 -86 0
w 106 105 87 1
w 106 105 -87 0
w 106 -105 87 1
w 106 -105 -87 1
w 107 106 88 1
w 107 106 -88 0
w 107 -106 88 0
w 107 -106 -88 1
w 108 107 89 0.341016
w 108 107 -89 0.178232
w 108 -107 89 0.25138
w 108 -107 -89 0.450161
w 109 108 90 1
w 109 108 -90 0
w 109 -108 90 1
w 109 -108 -90 0
w 110 109 91 0.604219
w 110 109 -91 0.741853
w 110 -109 91 0.840775
w 110 -109 -91 0.438367
w 111 110 92 0
w 111 110 -92 0
w 111 -110 92 1
w 111 -110 -92 1
w 112 111 93 1
w 112 111 -93 0
w 112 -111 93 0
w 112 -111 -93 0
w 113 112 94 0.391464
w 113 112 -94 0.748332
w 113 -112 94 0.525222
w 113 -112 -94 0.60549
w 114 113 95 0.48236
w 114 113 -95 0.946506
w 114 -113 95 0.144205
w 114 -113 -95 0.73374
w 115 96 0
w 115 -96 1
w 116 115 97 0.10016
w 116 115 -97 0.441537
w 116 -115 97 0.941864
w 116 -115 -97 0.94619
w 117 116 98 0
w 117 116 -98 1
w 117 -116 98 0
w 117 -116 -98 0
w 118 117 99 0.118193
w 118 117 -99 0.663508
w 118 -117 99 0.944532
w 118 -117 -99 0.622457
w 119 118 100 1
w 119 118 -100 0
w 119 -118 100 1
w 119 -118 -100 1
w 120 119 101 0.729488
w 120 119 -101 0.41517
w 120 -119 101 0.726594
w 120 -119 -101 0.211848
w 121 120 102 0
w 121 120 -102 0
w 121 -120 102 0
w 121 -120 -102 1
w 122 121 103 0.858503
w 122 121 -103 0.662428
w 122 -121 103 0.860793
w 122 -121 -103 0.804693
w 123 122 104 0
w 123 122 -104 0
w 123 -122 104 1
w 123 -122 -104 0
w 124 123 105 0
w 124 123 -105 0
w 124 -123 105 0
w 124 -123 -105 1
w 125 124 106 0.351174
w 125 124 -106 0.744864
w 125 -124 106 0.159288
w 125 -124 -106 0.160854
w 126 125 107 1
w 126 125 -107 1
w 126 -125 107 1
w 126 -125 -107 0
w 127 126 108 0.102877
w 127 126 -108 0.0462111
w 127 -126 108 0.696044
w 127 -126 -108 0.323768
w 128 127 109 0.554547
w 128 127 -109 0.986196
w 128 -127 109 0.825932
w 128 -127 -109 0.359239
w 129 128 110 0
w 129 128 -110 0
w 129 -128 110 1
w 129 -128 -110 1
w 130 129 111 1
w 130 129 -111 1
w 130 -129 111 1
w 130 -129 -111 0
w 131 130 112 0
w 131 130 -112 1
w 131 -130 112 0
w 131 -130 -112 1
w 132 131 113 0
w 132 131 -113 0
w 132 -131 113 1
w 132 -131 -113 1
w 133 132 114 1
w 133 132 -114 1
w 133 -132 114 1
w 133 -132 -114 0
w 134 115 1
w 134 -115 0
w 135 134 116 1
w 135 134 -116 0
w 135 -134 116 1
w 135 -134 -116 0
w 136 135 117 1
w 136 135 -117 0
w 136 -135 117 1
w 136 -135 -117 0
w 137 136 118 0
w 137 136 -118 1
w 137 -136 118 1
w 137 -136 -118 0
w 138 137 119 1
w 138 137 -119 1
w 138 -137 119 0
w 138 -137 -119 1
w 139 138 120 0.515742
w 139 138 -120 0.745454
w 139 -138 120 0.893867
w 139 -138 -120 0.669122
w 140 139 121 0.0792667
w 140 139 -121 0.868712
w 140 -139 121 0.753294
w 140 -139 -121 0.588435
w 141 140 122 1
w 141 140 -122 0
w 141 -140 122 0
w 141 -140 -122 0
w 142 141 123 0
w 142 141 -123 1
w 142 -141 123 1
w 142 -141 -123 0
w 143 142 124 0.623595
w 143 142 -124 0.549388
w 143 -142 124 0.181089
w 143 -142 -124 0.0273603
w 144 143 125 0
w 144 143 -125 1
w 144 -143 125 0
w 144 -143 -125 0
w 145 144 126 1
w 145 144 -126 1
w 145 -144 126 0
w 145 -144 -126 0
w 146 145 127 0
w 146 145 -127 0
w 146 -145 127 1
w 146 -145 -127 0
w 147 146 128 1
w 147 146 -128 1
w 147 -146 128 0
w 147 -146 -128 1
w 148 147 129 0.856486
w 148 147 -129 0.439413
w 148 -147 129 0.567225
w 148 -147 -129 0.206462
w 149 148 130 0.454001
w 149 148 -130 0.830057
w 149 -148 130 0.52234
w 149 -148 -130 0.635091
w 150 149 131 0.687672
w 150 149 -131 0.115186
w 150 -149 131 0.769861
w 150 -149 -131 0.813904
w 151 150 132 0
w 151 150 -132 1
w 151 -150 132 1
w 151 -150 -132 0
w 152 151 133 0
w 152 151 -133 1
w 152 -151 133 0
w 152 -151 -133 1
w 153 134 0
w 153 -134 1
w 154 153 135 1
w 154 153 -135 0
w 154 -153 135 0
w 154 -153 -135 0
w 155 154 136 0
w 155 154 -136 1
w 155 -154 136 0
w 155 -154 -136 0
w 156 155 137 1
w 156 155 -137 1
w 156 -155 137 1
w 156 -155 -137 0
w 157 156 138 0
w 157 156 -138 0
w 157 -156 138 0
w 157 -156 -138 1
w 158 157 139 1
w 158 157 -139 0
w 158 -157 139 1
w 158 -157 -139 0
w 159 158 140 0
w 159 158 -140 0
w 159 -158 140 0
w 159 -158 -140 1
w 160 159 141 0.551084
w 160 159 -141 0.823123
w 160 -159 141 0.558827
w 160 -159 -141 0.277085
w 161 160 142 1
w 161 160 -142 0
w 161 -160 142 0
w 161 -160 -142 1
w 162 161 143 0
w 162 161 -143 1
w 162 -161 143 1
w 162 -161 -143 1
w 163 162 144 0
w 163 162 -144 1
w 163 -162 144 0
w 163 -162 -144 0
w 164 163 145 0
w 164 163 -145 1
w 164 -163 145 1
w 164 -163 -145 1
w 165 164 146 0
w 165 164 -146 1
w 165 -164 146 0
w 165 -164 -146 0
w 166 165 147 0
w 166 165 -147 1
w 166 -165 147 1
w 166 -165 -147 1
w 167 166 148 0
w 167 166 -148 0
w 167 -166 148 0
w 167 -166 -148 1
w 168 167 149 1
w 168 167 -149 1
w 168 -167 149 1
w 168 -167 -149 0
w 169 168 150 0
w 169 168 -150 0
w 169 -168 150 1
w 169 -168 -150 0
w 170 169 151 1
w 170 169 -151 1
w 170 -169 151 1
w 170 -169 -151 0
w 171 170 152 1
w 171 170 -152 0
w 171 -170 152 1
w 171 -170 -152 1
w 172 153 1
w 172 -153 0
w 173 172 154 0
w 173 172 -154 1
w 173 -172 154 0
w 173 -172 -154 1
w 174 173 155 0.164884
w 174 173 -155 0.750445
w 174 -173 155 0.102402
w 174 -173 -155 0.86917
w 175 174 156 0.516518
w 175 174 -156 0.815026
w 175 -174 156 0.06668
w 175 -174 -156 0.355218
w 176 175 157 1
w 176 175 -157 1
w 176 -175 157 1
w 176 -175 -157 0
w 177 176 158 0.592896
w 177 176 -158 0.843088
w 177 -176 158 0.611855
w 177 -176 -158 0.709607
w 178 177 159 0.0316953
w 178 177 -159 0.979321
w 178 -177 159 0.903747
w 178 -177 -159 0.662005
w 179 178 160 1
w 179 178 -160 0
w 179 -178 160 1
w 179 -178 -160 0
w 180 179 161 1
w 180 179 -161 1
w 180 -179 161 1
w 180 -179 -161 0
w 181 180 162 0
w 181 180 -162 1
w 181 -180 162 1
w 181 -180 -162 1
w 182 181 163 0
w 182 181 -163 1
w 182 -181 163 0
w 182 -181 -163 1
w 183 182 164 0.737426
w 183 182 -164 0.66624
w 183 -182 164 0.473081
w 183 -182 -164 0.447032
w 184 183 165 0
w 184 183 -165 0
w 184 -183 165 1
w 184 -183 -165 0
w 185 184 166 0.492688
w 185 184 -166 0.297389
w 185 -184 166 0.0870684
w 185 -184 -166 0.584902
w 186 185 167 1
w 186 185 -167 1
w 186 -185 167 1
w 186 -185 -167 0
w 187 186 168 0
w 187 186 -168 1
w 187 -186 168 0
w 187 -186 -168 0
w 188 187 169 0
w 188 187 -169 0
w 188 -187 169 0
w 188 -187 -169 1
w 189 188 170 0.43996
w 189 188 -170 0.545973
w 189 -188 170 0.378899
w 189 -188 -170 0.886992
w 190 189 171 1
w 190 189 -171 0
w 190 -189 171 1
w 190 -189 -171 1
w 191 172 1
w 191 -172 0
w 192 191 173 0
w 192 191 -173 1
w 192 -191 173 1
w 192 -191 -173 1
w 193 192 174 1
w 193 192 -174 1
w 193 -192 174 0
w 193 -192 -174 1
w 194 193 175 0.0522246
w 194 193 -175 0.65509
w 194 -193 175 0.857157
w 194 -193 -175 0.610229
w 195 194 176 0
w 195 194 -176 0
w 195 -194 176 1
w 195 -194 -176 0
w 196 195 177 0.137377
w 196 195 -177 0.186464
w 196 -195 177 0.639714
w 196 -195 -177 0.296632
w 197 196 178 1
w 197 196 -178 0
w 197 -196 178 1
w 197 -196 -178 1
w 198 197 179 0
w 198 197 -179 0
w 198 -197 179 1
w 198 -197 -179 0
w 199 198 180 1
w 199 198 -180 1
w 199 -198 180 0
w 199 -198 -180 0
w 200 199 181 0
w 200 199 -181 0
w 200 -199 181 1
w 200 -199 -181 0
w 201 200 182 0
w 201 200 -182 0
w 201 -200 182 1
w 201 -200 -182 0
w 202 201 183 0.152003
w 202 201 -183 0.956397
w 202 -201 183 0.445092
w 202 -201 -183 0.448635
w 203 202 184 1
w 203 202 -184 1
w 203 -202 184 0
w 203 -202 -184 0
w 204 203 185 0.810876
w 204 203 -185 0.976177
w 204 -203 185 0.827248
w 204 -203 -185 0.602666
w 205 204 186 1
w 205 204 -186 1
w 205 -204 186 0
w 205 -204 -186 1
w 206 205 187 0
w 206 205 -187 1
w 206 -205 187 0
w 206 -205 -187 0
w 207 206 188 0.141301
w 207 206 -188 0.124619
w 207 -206 188 0.904451
w 207 -206 -188 0.155928
w 208 207 189 0.709829
w 208 207 -189 0.307931
w 208 -207 189 0.85095
w 208 -207 -189 0.154921
w 209 208 190 0.877487
w 209 208 -190 0.553072
w 209 -208 190 0.178117
w 209 -208 -190 0.0246211
w 210 191 0
w 210 -191 1
w 211 210 192 0.00529956
w 211 210 -192 0.857429
w 211 -210 192 0.438163
w 211 -210 -192 0.473841
w 212 211 193 0.388227
w 212 211 -193 0.372012
w 212 -211 193 0.744475
w 212 -211 -193 0.394754
w 213 212 194 1
w 213 212 -194 1
w 213 -212 194 0
w 213 -212 -194 0
w 214 213 195 0
w 214 213 -195 0
w 214 -213 195 0
w 214 -213 -195 1
w 215 214 196 1
w 215 214 -196 0
w 215 -214 196 1
w 215 -214 -196 1
w 216 215 197 0
w 216 215 -197 0
w 216 -215 197 1
w 216 -215 -197 0
w 217 216 198 0
w 217 216 -198 1
w 217 -216 198 1
w 217 -216 -198 0
w 218 217 199 1
w 218 217 -199 1
w 218 -217 199 0
w 218 -217 -199 1
w 219 218 200 0
w 219 218 -200 0
w 219 -218 200 1
w 219 -218 -200 0
w 220 219 201 0
w 220 219 -201 0
w 220 -219 201 0
w 220 -219 -201 1
w 221 220 202 1
w 221 220 -202 0
w 221 -220 202 0
w 221 -220 -202 0
w 222 221 203 0
w 222 221 -203 1
w 222 -221 203 0
w 222 -221 -203 1
w 223 222 204 0.97712
w 223 222 -204 0.178903
w 223 -222 204 0.310164
w 223 -222 -204 0.658906
w 224 223 205 1
w 224 223 -205 0
w 224 -223 205 0
w 224 -223 -205 0
w 225 224 206 0
w 225 224 -206 0
w 225 -224 206 1
w 225 -224 -206 0
w 226 225 207 1
w 226 225 -207 0
w 226 -225 207 1
w 226 -225 -207 1
w 227 226 208 0
w 227 226 -208 1
w 227 -226 208 0
w 227 -226 -208 0
w 228 227 209 1
w 228 227 -209 0
w 228 -227 209 0
w 228 -227 -209 1
w 229 210 0
w 229 -210 1
w 230 229 211 1
w 230 229 -211 0
w 230 -229 211 1
w 230 -229 -211 1
w 231 230 212 1
w 231 230 -212 1
w 231 -230 212 1
w 231 -230 -212 0
w 232 231 213 0
w 232 231 -213 1
w 232 -231 213 1
w 232 -231 -213 1
w 233 232 214 0
w 233 232 -214 1
w 233 -232 214 1
w 233 -232 -214 0
w 234 233 215 0.963266
w 234 233 -215 0.729626
w 234 -233 215 0.0716259
w 234 -233 -215 0.480105
w 235 234 216 0.39759
w 235 234 -216 0.73044
w 235 -234 216 0.891418
w 235 -234 -216 0.493431
w 236 235 217 0.208232
w 236 235 -217 0.899436
w 236 -235 217 0.844256
w 236 -235 -217 0.242661
w 237 236 218 0.459537
w 237 236 -218 0.905428
w 237 -236 218 0.596491
w 237 -236 -218 0.268505
w 238 237 219 1
w 238 237 -219 1
w 238 -237 219 0
w 238 -237 -219 1
w 239 238 220 1
w 239 238 -220 1
w 239 -238 220 0
w 239 -238 -220 1
w 240 239 221 0.892797
w 240 239 -221 0.546611
w 240 -239 221 0.558552
w 240 -239 -221 0.964423
w 241 240 222 1
w 241 240 -222 1
w 241 -240 222 1
w 241 -240 -222 0
w 242 241 223 0.71505
w 242 241 -223 0.411708
w 242 -241 223 0.75488
w 242 -241 -223 0.559307
w 243 242 224 0
w 243 242 -224 1
w 243 -242 224 1
w 243 -242 -224 0
w 244 243 225 0
w 244 243 -225 0
w 244 -243 225 1
w 244 -243 -225 0
w 245 244 226 0
w 245 244 -226 1
w 245 -244 226 0
w 245 -244 -226 0
w 246 245 227 0.258977
w 246 245 -227 0.121049
w 246 -245 227 0.37155
w 246 -245 -227 0.817529
w 247 246 228 0
w 247 246 -228 0
w 247 -246 228 1
w 247 -246 -228 1
w 248 229 1
w 248 -229 0
w 249 248 230 0.744772
w 249 248 -230 0.0578085
w 249 -248 230 0.429778
w 249 -248 -230 0.399142
w 250 249 231 1
w 250 249 -231 0
w 250 -249 231 0
w 250 -249 -231 1
w 251 250 232 0
w 251 250 -232 0
w 251 -250 232 0
w 251 -250 -232 1
w 252 251 233 0
w 252 251 -233 0
w 252 -251 233 1
w 252 -251 -233 0
w 253 252 234 0
w 253 252 -234 1
w 253 -252 234 1
w 253 -252 -234 0
w 254 253 235 0
w 254 253 -235 1
w 254 -253 235 0
w 254 -253 -235 0
w 255 254 236 0
w 255 254 -236 1
w 255 -254 236 1
w 255 -254 -236 1
w 256 255 237 0
w 256 255 -237 1
w 256 -255 237 1
w 256 -255 -237 1
w 257 256 238 0
w 257 256 -238 1
w 257 -256 238 0
w 257 -256 -238 1
w 258 257 239 0.941719
w 258 257 -239 0.490182
w 258 -257 239 0.187061
w 258 -257 -239 0.537942
w 259 258 240 0
w 259 258 -240 0
w 259 -258 240 1
w 259 -258 -240 0
w 260 259 241 0.729042
w 260 259 -241 0.974039
w 260 -259 241 0.393213
w 260 -259 -241 0.167294
w 261 260 242 1
w 261 260 -242 1
w 261 -260 242 1
w 261 -260 -242 0
w 262 261 243 0.496677
w 262 261 -243 0.877186
w 262 -261 243 0.473591
w 262 -261 -243 0.51101
w 263 262 244 0.114337
w 263 262 -244 0.633055
w 263 -262 244 0.761867
w 263 -262 -244 0.284772
w 264 263 245 1
w 264 263 -245 0
w 264 -263 245 1
w 264 -263 -245 1
w 265 264 246 0.362577
w 265 264 -246 0.444098
w 265 -264 246 0.270147
w 265 -264 -246 0.98643
w 266 265 247 0
w 266 265 -247 0
w 266 -265 247 1
w 266 -265 -247 0
w 267 248 1
w 267 -248 0
w 268 267 249 0
w 268 267 -249 1
w 268 -267 249 0
w 268 -267 -249 1
w 269 268 250 0.639159
w 269 268 -250 0.159482
w 269 -268 250 0.687786
w 269 -268 -250 0.753496
w 270 269 251 0.449652
w 270 269 -251 0.0382686
w 270 -269 251 0.0166795
w 270 -269 -251 0.130113
w 271 270 252 1
w 271 270 -252 0
w 271 -270 252 1
w 271 -270 -252 0
w 272 271 253 0
w 272 271 -253 1
w 272 -271 253 0
w 272 -271 -253 0
w 273 272 254 0.407095
w 273 272 -254 0.976354
w 273 -272 254 0.678249
w 273 -272 -254 0.0762384
w 274 273 255 0
w 274 273 -255 1
w 274 -273 255 0
w 274 -273 -255 0
w 275 274 256 1
w 275 274 -256 0
w 275 -274 256 1
w 275 -274 -256 0
w 276 275 257 0.165461
w 276 275 -257 0.507825
w 276 -275 257 0.845205
w 276 -275 -257 0.295574
w 277 276 258 0.576209
w 277 276 -258 0.293207
w 277 -276 258 0.801777
w 277 -276 -258 0.669789
w 278 277 259 0
w 278 277 -259 1
w 278 -277 259 1
w 278 -277 -259 0
w 279 278 260 0
w 279 278 -260 0
w 279 -278 260 1
w 279 -278 -260 0
w 280 279 261 0.134865
w 280 279 -261 0.3837
w 280 -279 261 0.0390493
w 280 -279 -261 0.211766
w 281 280 262 0
w 281 280 -262 1
w 281 -280 262 1
w 281 -280 -262 1
w 282 281 263 0
w 282 281 -263 0
w 282 -281 263 1
w 282 -281 -263 0
w 283 282 264 1
w 283 282 -264 0
w 283 -282 264 1
w 283 -282 -264 1
w 284 283 265 0
w 284 283 -265 1
w 284 -283 265 1
w 284 -283 -265 1
w 285 284 266 1
w 285 284 -266 0
w 285 -284 266 1
w 285 -284 -266 0
w 286 267 0
w 286 -267 1
w 287 286 268 0.563189
w 287 286 -268 0.496125
w 287 -286 268 0.0811707
w 287 -286 -268 0.823396
w 288 287 269 1
w 288 287 -269 1
w 288 -287 269 0
w 288 -287 -269 1
w 289 288 270 1
w 289 288 -270 0
w 289 -288 270 0
w 289 -288 -270 0
w 290 289 271 0.76037
w 290 289 -271 0.0754647
w 290 -289 271 0.468942
w 290 -289 -271 0.976293
w 291 290 272 0
w 291 290 -272 1
w 291 -290 272 1
w 291 -290 -272 0
w 292 291 273 1
w 292 291 -273 1
w 292 -291 273 0
w 292 -291 -273 1
w 293 292 274 1
w 293 292 -274 0
w 293 -292 274 1
w 293 -292 -274 1
w 294 293 275 1
w 294 293 -275 0
w 294 -293 275 1
w 294 -293 -275 0
w 295 294 276 0
w 295 294 -276 0
w 295 -294 276 1
w 295 -294 -276 1
w 296 295 277 0.220331
w 296 295 -277 0.585125
w 296 -295 277 0.323415
w 296 -295 -277 0.196624
w 297 296 278 0.373041
w 297 296 -278 0.138641
w 297 -296 278 0.224576
w 297 -296 -278 0.545708
w 298 297 279 0
w 298 297 -279 0
w 298 -297 279 0
w 298 -297 -279 1
w 299 298 280 1
w 299 298 -280 0
w 299 -298 280 0
w 299 -298 -280 1
w 300 299 281 0.730058
w 300 299 -281 0.121474
w 300 -299 281 0.977219
w 300 -299 -281 0.406955
w 301 300 282 1
w 301 300 -282 1
w 301 -300 282 0
w 301 -300 -282 0
w 302 301 283 0.394559
w 302 301 -283 0.903235
w 302 -301 283 0.473061
w 302 -301 -283 0.717974
w 303 302 284 0
w 303 302 -284 1
w 303 -302 284 0
w 303 -302 -284 1
w 304 303 285 0
w 304 303 -285 1
w 304 -303 285 0
w 304 -303 -285 1
w 305 286 1
w 305 -286 0
w 306 305 287 0
w 306 305 -287 1
w 306 -305 287 1
w 306 -305 -287 1
w 307 306 288 0
w 307 306 -288 0
w 307 -306 288 1
w 307 -306 -288 1
w 308 307 289 1
w 308 307 -289 0
w 308 -307 289 1
w 308 -307 -289 1
w 309 308 290 0
w 309 308 -290 1
w 309 -308 290 1
w 309 -308 -290 0
w 310 309 291 0.400622
w 310 309 -291 0.940001
w 310 -309 291 0.596749
w 310 -309 -291 0.230787
w 311 310 292 0
w 311 310 -292 1
w 311 -310 292 0
w 311 -310 -292 1
w 312 311 293 0
w 312 311 -293 0
w 312 -311 293 1
w 312 -311 -293 1
w 313 312 294 0
w 313 312 -294 1
w 313 -312 294 1
w 313 -312 -294 0
w 314 313 295 0
w 314 313 -295 1
w 314 -313 295 1
w 314 -313 -295 0
w 315 314 296 1
w 315 314 -296 0
w 315 -314 296 1
w 315 -314 -296 0
w 316 315 297 1
w 316 315 -297 0
w 316 -315 297 0
w 316 -315 -297 1
w 317 316 298 0
w 317 316 -298 0
w 317 -316 298 1
w 317 -316 -298 0
w 318 317 299 0
w 318 317 -299 0
w 318 -317 299 0
w 318 -317 -299 1
w 319 318 300 0
w 319 318 -300 0
w 319 -318 300 1
w 319 -318 -300 1
w 320 319 301 0
w 320 319 -301 0
w 320 -319 301 1
w 320 -319 -301 1
w 321 320 302 0.770286
w 321 320 -302 0.630225
w 321 -320 302 0.953738
w 321 -320 -302 0.0103103
w 322 321 303 0
w 322 321 -303 1
w 322 -321 303 0
w 322 -321 -303 1
w 323 322 304 0
w 323 322 -304 1
w 323 -322 304 0
w 323 -322 -304 1
w 324 305 0.0100212
w 324 -305 0.91936
w 325 324 306 0
w 325 324 -306 1
w 325 -324 306 1
w 325 -324 -306 0
w 326 325 307 0
w 326 325 -307 0
w 326 -325 307 1
w 326 -325 -307 0
w 327 326 308 1
w 327 326 -308 1
w 327 -326 308 0
w 327 -326 -308 1
w 328 327 309 0
w 328 327 -309 0
w 328 -327 309 0
w 328 -327 -309 1
w 329 328 310 0.325936
w 329 328 -310 0.680538
w 329 -328 310 0.495609
w 329 -328 -310 0.350021
w 330 329 311 1
w 330 329 -311 0
w 330 -329 311 0
w 330 -329 -311 0
w 331 330 312 0.959391
w 331 330 -312 0.529903
w 331 -330 312 0.702439
w 331 -330 -312 0.0632434
w 332 331 313 1
w 332 331 -313 1
w 332 -331 313 0
w 332 -331 -313 1
w 333 332 314 0
w 333 332 -314 1
w 333 -332 314 1
w 333 -332 -314 1
w 334 333 315 0.944542
w 334 333 -315 0.388663
w 334 -333 315 0.584106
w 334 -333 -315 0.617922
w 335 334 316 1
w 335 334 -316 1
w 335 -334 316 1
w 335 -334 -316 0
w 336 335 317 1
w 336 335 -317 0
w 336 -335 317 0
w 336 -335 -317 1
w 337 336 318 0
w 337 336 -318 1
w 337 -336 318 1
w 337 -336 -318 1
w 338 337 319 0
w 338 337 -319 0
w 338 -337 319 1
w 338 -337 -319 1
w 339 338 320 1
w 339 338 -320 0
w 339 -338 320 1
w 339 -338 -320 1
w 340 339 321 0.747957
w 340 339 -321 0.780777
w 340 -339 321 0.570898
w 340 -339 -321 0.365878
w 341 340 322 0.480939
w 341 340 -322 0.664338
w 341 -340 322 0.686634
w 341 -340 -322 0.741002
w 342 341 323 1
w 342 341 -323 1
w 342 -341 323 0
w 342 -341 -323 1
w 343 324 1
w 343 -324 0
w 344 343 325 0.749511
w 344 343 -325 0.0581043
w 344 -343 325 0.793515
w 344 -343 -325 0.0839619
w 345 344 326 1
w 345 344 -326 0
w 345 -344 326 0
w 345 -344 -326 1
w 346 345 327 1
w 346 345 -327 1
w 346 -345 327 0
w 346 -345 -327 0
w 347 346 328 0.33665
w 347 346 -328 0.986965
w 347 -346 328 0.32573
w 347 -346 -328 0.32255
w 348 347 329 0
w 348 347 -329 1
w 348 -347 329 1
w 348 -347 -329 1
w 349 348 330 0
w 349 348 -330 1
w 349 -348 330 0
w 349 -348 -330 1
w 350 349 331 0.721948
w 350 349 -331 0.525243
w 350 -349 331 0.652271
w 350 -349 -331 0.80591
w 351 350 332 1
w 351 350 -332 0
w 351 -350 332 1
w 351 -350 -332 1
w 352 351 333 0
w 352 351 -333 0
w 352 -351 333 1
w 352 -351 -333 0
w 353 352 334 0
w 353 352 -334 0
w 353 -352 334 1
w 353 -352 -334 1
w 354 353 335 0
w 354 353 -335 0
w 354 -353 335 1
w 354 -353 -335 0
w 355 354 336 1
w 355 354 -336 0
w 355 -354 336 1
w 355 -354 -336 1
w 356 355 337 0
w 356 355 -337 1
w 356 -355 337 1
w 356 -355 -337 1
w 357 356 338 0.0375609
w 357 356 -338 0.379899
w 357 -356 338 0.844645
w 357 -356 -338 0.396799
w 358 357 339 1
w 358 357 -339 0
w 358 -357 339 0
w 358 -357 -339 1
w 359 358 340 1
w 359 358 -340 0
w 359 -358 340 1
w 359 -358 -340 1
w 360 359 341 1
w 360 359 -341 1
w 360 -359 341 1
w 360 -359 -341 0
w 361 360 342 0.0147351
w 361 360 -342 0.533338
w 361 -360 342 0.457935
w 361 -360 -342 0.0412385